/*********************************************
 * OPL 12.6.0.0 Data
 * Author: Matt
 * Creation Date: 24 Oct 2016 at 09:31:56
 *********************************************/

n = 9;

Edges = {
	<1,2>, <2,3>,
	<1,4>, <2,5>, <3,6>,
	<4,5>, <5,6>,
	<4,7>, <5,8>, <6,9>,
	<7,8>, <8,9>
};

Cost = [
	1.0, 1.0,
	1.0, 1.0, 1.0,
	1.0, 1.0,
	1.0, 1.0, 1.0,
	1.0, 1.0
];
